Rodando pra 1h

Optimize a model with 490129 rows, 734060 columns and 26879979 nonzeros
Coefficient statistics:
  Matrix range    [1e+00, 1e+04]
  Objective range [2e-01, 8e-01]
  Bounds range    [1e+00, 1e+04]
  RHS range       [1e+00, 1e+04]
Presolve removed 0 rows and 0 columns (presolve time = 5s) ...
Presolve removed 0 rows and 0 columns (presolve time = 23s) ...
Presolve removed 8 rows and 8 columns (presolve time = 34s) ...
Presolve removed 8 rows and 8 columns (presolve time = 35s) ...
Presolve removed 8 rows and 8 columns (presolve time = 49s) ...
Presolve removed 8 rows and 8 columns (presolve time = 54s) ...
Presolve removed 8 rows and 8 columns (presolve time = 55s) ...
Presolve removed 8 rows and 8 columns (presolve time = 64s) ...
Presolve removed 8 rows and 8 columns (presolve time = 69s) ...
Presolve removed 8 rows and 8 columns (presolve time = 73s) ...
Presolve removed 8 rows and 8 columns (presolve time = 77s) ...
Presolve removed 8 rows and 8 columns (presolve time = 82s) ...
Presolve removed 8 rows and 8 columns (presolve time = 86s) ...
Presolve removed 8 rows and 8 columns (presolve time = 91s) ...
Presolve removed 8 rows and 8 columns (presolve time = 95s) ...
Presolve removed 8 rows and 8 columns (presolve time = 104s) ...
Presolve removed 8 rows and 8 columns (presolve time = 109s) ...
Presolve removed 8 rows and 8 columns (presolve time = 113s) ...
Presolve removed 8 rows and 8 columns (presolve time = 118s) ...
Presolve removed 8 rows and 8 columns (presolve time = 122s) ...
Presolve removed 8 rows and 8 columns (presolve time = 126s) ...
Presolve removed 8 rows and 8 columns (presolve time = 131s) ...
Presolve removed 8 rows and 8 columns (presolve time = 135s) ...
Presolve removed 8 rows and 8 columns (presolve time = 144s) ...
Presolve removed 8 rows and 8 columns (presolve time = 149s) ...
Presolve removed 8 rows and 8 columns (presolve time = 153s) ...
Presolve removed 8 rows and 8 columns (presolve time = 157s) ...
Presolve removed 8 rows and 8 columns (presolve time = 162s) ...
Presolve removed 8 rows and 8 columns (presolve time = 166s) ...
Presolve removed 8 rows and 8 columns (presolve time = 171s) ...
Presolve removed 8 rows and 8 columns (presolve time = 175s) ...
Presolve removed 8 rows and 8 columns (presolve time = 184s) ...
Presolve removed 8 rows and 8 columns (presolve time = 189s) ...
Presolve removed 8 rows and 8 columns (presolve time = 193s) ...
Presolve removed 8 rows and 8 columns (presolve time = 197s) ...
Presolve removed 8 rows and 8 columns (presolve time = 202s) ...
Presolve removed 8 rows and 8 columns (presolve time = 206s) ...
Presolve removed 8 rows and 8 columns (presolve time = 211s) ...
Presolve removed 8 rows and 8 columns (presolve time = 215s) ...
Presolve removed 8 rows and 8 columns (presolve time = 224s) ...
Presolve removed 8 rows and 8 columns (presolve time = 229s) ...
Presolve removed 8 rows and 8 columns (presolve time = 233s) ...
Presolve removed 8 rows and 8 columns (presolve time = 238s) ...
Presolve removed 8 rows and 8 columns (presolve time = 255s) ...
Presolve removed 8 rows and 8 columns (presolve time = 262s) ...
Presolve removed 8 rows and 8 columns (presolve time = 296s) ...
Presolve removed 8 rows and 8 columns
Presolve time: 295.70s
Presolved: 490121 rows, 734052 columns, 26879963 nonzeros
Variable types: 489300 continuous, 244752 integer (244750 binary)
Optimize a model with 490121 rows, 734052 columns and 26879963 nonzeros
Coefficient statistics:
  Matrix range    [1e+00, 1e+04]
  Objective range [2e-01, 8e-01]
  Bounds range    [1e+00, 1e+04]
  RHS range       [1e+00, 1e+04]
Presolve removed 0 rows and 0 columns (presolve time = 6s) ...
Presolve removed 0 rows and 0 columns (presolve time = 11s) ...
Presolve removed 0 rows and 0 columns (presolve time = 16s) ...
Presolved: 490121 rows, 734052 columns, 26879963 nonzeros


Root simplex log...

Iteration    Objective       Primal Inf.    Dual Inf.      Time
       0    0.0000000e+00   2.114683e+03   0.000000e+00    365s
    1438    0.0000000e+00   2.851750e+01   0.000000e+00    365s
    2143    3.7126869e-04   1.170810e+04   0.000000e+00    390s
    2708    4.9792990e-04   2.228336e+04   0.000000e+00    413s
    3185    5.5034056e-04   3.567459e+04   0.000000e+00    433s
    3612    5.7263840e-04   2.868846e+04   0.000000e+00    449s
    4104    7.5947081e-04   2.599718e+04   0.000000e+00    471s
    4652    8.7385368e-04   5.058380e+04   0.000000e+00    498s
    5043    1.1481428e-03   9.254127e+04   0.000000e+00    519s
    5407    1.2162090e-03   4.760480e+04   0.000000e+00    536s
    5880    1.3753202e-03   2.328663e+05   0.000000e+00    559s
    6285    5.4071542e+00   1.277889e+04   0.000000e+00    577s
    7746    5.4079660e+00   2.142502e+04   0.000000e+00    613s
    9347    5.4083041e+00   1.476401e+04   0.000000e+00    652s
   11113    5.4083390e+00   2.607465e+04   0.000000e+00    694s
   12280    5.4084506e+00   1.454952e+04   0.000000e+00    718s
   13600    5.4085447e+00   2.789265e+04   0.000000e+00    746s
   14918    5.4086509e+00   1.984980e+04   0.000000e+00    776s
   16257    5.4087622e+00   2.250308e+04   0.000000e+00    805s
   17814    5.4088856e+00   1.687276e+04   0.000000e+00    840s
   18971    5.4101259e+00   2.706091e+04   0.000000e+00    866s
   20182    5.4106432e+00   1.275544e+04   0.000000e+00    894s
   21422    5.4110723e+00   2.611200e+04   0.000000e+00    923s
   22689    5.4114367e+00   2.240607e+04   0.000000e+00    954s
   24046    5.4118017e+00   2.840123e+04   0.000000e+00    985s
   25365    5.4162744e+00   2.925853e+04   0.000000e+00   1019s
   26706    5.4180320e+00   2.702317e+04   0.000000e+00   1055s
   28094    5.4195838e+00   2.230814e+04   0.000000e+00   1098s
   29521    5.4209582e+00   1.879210e+04   0.000000e+00   1146s
   30975    5.4224406e+00   1.373367e+04   0.000000e+00   1196s
   32462    5.4239277e+00   1.647682e+04   0.000000e+00   1245s
   33984    5.4254267e+00   2.256010e+04   0.000000e+00   1292s
   35550    5.4270020e+00   2.364406e+04   0.000000e+00   1403s
   37209    5.4286479e+00   2.614749e+04   0.000000e+00   1470s
   38879    5.4303231e+00   1.343396e+04   0.000000e+00   1539s
   40636    5.4320748e+00   3.286226e+04   0.000000e+00   1613s
   42380    5.4338030e+00   2.078107e+04   0.000000e+00   1685s
   44195    5.4356311e+00   1.240987e+04   0.000000e+00   1766s
   46068    5.4375356e+00   2.912967e+04   0.000000e+00   1852s
   48032    5.4396635e+00   1.154050e+04   0.000000e+00   1945s
   50029    5.4433902e+00   1.000392e+04   0.000000e+00   2041s
   53094    5.7976732e+00   4.372285e+04   0.000000e+00   2195s
   54392    5.8407249e+00   1.900383e+04   0.000000e+00   2261s
   55705    5.8806888e+00   1.526351e+04   0.000000e+00   2326s
   57105    5.9767533e+00   4.748107e+04   0.000000e+00   2395s
   58077    5.9922849e+00   4.435794e+04   0.000000e+00   2445s
   60418    6.2670694e+00   3.753642e+04   0.000000e+00   2565s
   62482    6.3748606e+00   2.344948e+04   0.000000e+00   2677s
   64205    6.4563925e+00   2.623292e+04   0.000000e+00   2778s
   66373    6.5868844e+00   4.095888e+04   0.000000e+00   2901s
   67605    6.6126594e+00   2.500111e+04   0.000000e+00   2972s
   68873    6.6379988e+00   2.070324e+04   0.000000e+00   3046s
   69965    6.6534202e+00   4.866332e+04   0.000000e+00   3109s
   71487    6.7013482e+00   5.272883e+04   0.000000e+00   3199s
   73652    6.8633578e+00   4.072748e+04   0.000000e+00   3332s
   75265    6.9055238e+00   2.779322e+04   0.000000e+00   3429s
   77175    6.9704195e+00   3.932040e+04   0.000000e+00   3546s

Root relaxation: time limit, 78072 iterations, 3253.33 seconds

    Nodes    |    Current Node    |     Objective Bounds      |     Work
 Expl Unexpl |  Obj  Depth IntInf | Incumbent    BestBd   Gap | It/Node Time

     0     0          -    0               -          -      -     - 3600s

Explored 0 nodes (78072 simplex iterations) in 3600.31 seconds
Thread count was 1 (of 4 available processors)

Time limit reached
Best objective -, best bound -, gap -
Tempo: 3465.86 segundos

Error code = 10004
Var::get
